language ESSENCE' 1.0

letting jobs = 102
letting horizon = 819
letting resourcesRenew = 2
letting resourcesNonrenew = 2
letting resourceLimits = [17, 19, 169, 136]
letting successors = [[2, 3, 4, 5, 6, 7, 8, 9, 10, 11, 12, 13, 14, 16, 23, 25, 27, 30], [72, 55, 47, 41, 38, 36, 32, 31, 29, 21, 17, 15], [63, 50, 47, 39, 37, 36, 32, 31, 29, 28, 22, 18], [72, 52, 48, 40, 38, 37, 36, 32, 29, 24, 19], [63, 55, 50, 48, 46, 43, 41, 39, 34, 29, 22, 18], [72, 57, 54, 49, 48, 43, 39, 38, 35, 29, 22, 20], [71, 48, 47, 26, 20, 17], [72, 63, 58, 57, 56, 55, 54, 52, 51, 50, 44, 43, 41, 39, 37, 35, 32], [57, 54, 53, 49, 44, 43, 40, 39, 20], [72, 63, 58, 57, 56, 55, 54, 50, 44, 39, 38, 35, 22], [71, 63, 55, 54, 42, 17], [63, 59, 56, 54, 51, 50, 49, 46, 44, 42, 40, 39, 35, 34], [75, 69, 63, 57, 55, 51, 49, 46, 45, 40, 38, 29], [75, 69, 63, 61, 57, 56, 53, 50, 46, 45, 44, 43, 42, 41, 40, 37], [58, 57, 56, 54, 52, 49, 44, 39, 22], [75, 67, 63, 61, 57, 54, 53, 49, 45, 43, 36, 33], [69, 57, 56, 53, 51, 50, 49, 44, 43, 40, 39, 37], [75, 72, 69, 59, 56, 54, 52, 49, 42, 40, 38], [71, 69, 68, 67, 63, 61, 58, 55, 54, 53, 50, 49, 42, 39], [63, 58, 56, 52, 51, 50, 42, 32], [71, 69, 67, 63, 61, 58, 56, 50, 39], [75, 71, 69, 68, 67, 66, 65, 61, 59, 53, 51, 45, 42], [75, 74, 71, 69, 68, 63, 62, 61, 58, 57, 53, 50], [71, 69, 68, 62, 60, 58, 57, 55, 53, 43], [75, 71, 69, 68, 63, 60, 59, 51, 49, 44], [78, 75, 69, 63, 62, 61, 60, 59, 58, 46, 44], [71, 68, 67, 57, 53, 51, 49, 43], [78, 74, 71, 69, 67, 66, 65, 60, 59, 58, 53, 51], [71, 68, 67, 65, 64, 59, 56, 44, 42], [101, 78, 75, 74, 71, 69, 68, 67, 64, 59, 57, 45], [69, 68, 66, 61, 54, 49, 42], [101, 78, 69, 67, 62, 61, 60, 59, 46], [68, 65, 64, 62, 58, 42], [71, 68, 67, 62, 61, 60, 57, 53], [99, 78, 73, 71, 70, 67, 66, 65, 53], [99, 78, 71, 69, 59, 51], [101, 100, 97, 95, 82, 77, 74, 73, 68, 65, 62], [99, 78, 71, 67, 61, 53], [75, 65, 64, 60, 45], [74, 68, 67, 66, 65, 58], [101, 99, 95, 93, 79, 78, 73, 71, 66, 65], [100, 96, 92, 90, 82, 81, 78, 77, 74, 60], [78, 74, 70, 66, 65, 59], [101, 100, 98, 96, 95, 92, 90, 77, 74, 73, 70, 66], [99, 98, 97, 95, 91, 82, 77, 73, 62], [100, 97, 81, 77, 74, 70, 68, 64], [101, 92, 82, 68, 66, 57], [101, 99, 66, 65, 61], [101, 95, 94, 82, 81, 78, 65, 62], [101, 99, 82, 79, 78, 73, 66, 65], [91, 77, 73, 64, 62], [92, 77, 74, 67, 60], [100, 97, 96, 93, 88, 80, 79, 77, 76, 64], [100, 99, 98, 97, 95, 92, 77, 76, 74, 70], [100, 98, 97, 96, 95, 91, 87, 81, 80, 77, 76], [99, 96, 95, 92, 87, 76, 74, 70], [96, 95, 94, 91, 81, 76, 70], [101, 96, 95, 93, 92, 91, 90, 86, 84, 73], [100, 98, 97, 92, 91, 90, 84, 80, 73], [99, 98, 97, 95, 94, 91, 87, 70], [97, 95, 93, 86, 79, 76, 73], [96, 92, 88, 87, 76, 70], [99, 93, 92, 91, 90, 89, 87, 85, 84, 83, 81], [98, 95, 94, 92, 90, 86, 85, 84, 83, 82], [98, 96, 92, 91, 87, 85, 83, 76], [97, 94, 91, 89, 88, 85, 84, 83, 80], [96, 91, 87, 86, 83, 79, 76], [99, 91, 88, 87, 85, 83, 79], [97, 94, 91, 86, 85, 83, 79], [93, 89, 85, 83, 80, 79], [100, 91, 88, 87, 85, 84], [96, 92, 91, 88, 85, 83], [89, 87, 85, 83, 81], [93, 88, 85, 83], [99, 95, 87, 86], [90, 89, 84], [94, 83], [86, 84], [84], [86], [88], [87], [102], [102], [102], [102], [102], [102], [102], [102], [102], [102], [102], [102], [102], [102], [102], [102], [102], [102], [102], []]
letting durations = [[0], [3, 6, 8], [8, 9, 10], [1, 2, 6], [6, 9, 9], [1, 6, 10], [3, 4, 6], [2, 9, 10], [5, 6, 6], [1, 9, 10], [1, 2, 3], [1, 4, 10], [4, 5, 7], [3, 5, 5], [1, 2, 9], [4, 5, 6], [6, 8, 10], [5, 5, 7], [3, 7, 8], [6, 9, 10], [7, 8, 9], [2, 5, 7], [1, 2, 9], [3, 6, 7], [1, 5, 10], [3, 4, 8], [6, 8, 8], [4, 5, 10], [5, 6, 10], [6, 7, 9], [1, 9, 10], [5, 6, 7], [5, 7, 7], [4, 7, 8], [3, 4, 4], [3, 4, 10], [5, 5, 7], [2, 5, 8], [3, 8, 8], [5, 8, 9], [1, 2, 7], [3, 5, 7], [4, 7, 9], [2, 5, 6], [2, 6, 10], [3, 8, 10], [2, 6, 9], [3, 6, 10], [1, 4, 9], [5, 6, 9], [1, 5, 6], [1, 2, 3], [1, 5, 8], [1, 4, 6], [2, 5, 6], [6, 7, 7], [4, 6, 7], [7, 8, 9], [2, 8, 10], [8, 9, 10], [3, 4, 9], [2, 6, 8], [3, 4, 9], [2, 3, 7], [1, 2, 9], [4, 9, 10], [1, 4, 5], [4, 8, 9], [4, 7, 8], [7, 8, 9], [2, 3, 6], [2, 2, 8], [1, 3, 7], [1, 5, 9], [3, 4, 7], [3, 7, 9], [5, 8, 10], [1, 2, 6], [2, 4, 10], [2, 6, 9], [2, 6, 8], [1, 3, 7], [5, 8, 9], [4, 6, 10], [1, 8, 9], [1, 6, 9], [4, 5, 9], [3, 4, 8], [6, 6, 8], [7, 8, 10], [7, 9, 10], [4, 6, 7], [4, 5, 7], [6, 6, 7], [1, 9, 10], [2, 4, 10], [1, 4, 7], [4, 7, 10], [5, 8, 10], [3, 7, 8], [4, 5, 9], [0]]
letting resourceUsage = [[[0, 0, 0, 0]], [[4, 2, 3, 0], [3, 1, 2, 0], [3, 1, 1, 0]], [[4, 2, 7, 0], [3, 2, 0, 5], [2, 1, 0, 1]], [[1, 3, 0, 6], [1, 2, 7, 0], [1, 2, 6, 0]], [[2, 4, 10, 0], [1, 3, 0, 4], [1, 2, 5, 0]], [[1, 5, 1, 0], [1, 4, 0, 5], [1, 3, 0, 3]], [[5, 3, 0, 5], [4, 3, 1, 0], [4, 3, 0, 1]], [[2, 4, 0, 10], [1, 2, 0, 7], [1, 2, 0, 3]], [[3, 4, 8, 0], [2, 3, 8, 0], [2, 3, 0, 2]], [[2, 3, 0, 9], [2, 3, 0, 7], [2, 2, 0, 6]], [[2, 4, 10, 0], [1, 3, 9, 0], [1, 3, 0, 1]], [[4, 1, 0, 5], [4, 1, 0, 4], [2, 1, 0, 2]], [[4, 5, 0, 8], [4, 5, 5, 0], [4, 5, 0, 6]], [[5, 5, 0, 5], [2, 5, 1, 0], [2, 5, 0, 1]], [[5, 1, 3, 0], [4, 1, 2, 0], [4, 1, 1, 0]], [[3, 5, 6, 0], [3, 3, 5, 0], [2, 1, 3, 0]], [[3, 3, 0, 8], [3, 2, 3, 0], [2, 2, 2, 0]], [[4, 3, 0, 4], [3, 1, 3, 0], [2, 1, 0, 2]], [[3, 5, 9, 0], [2, 5, 8, 0], [2, 5, 7, 0]], [[2, 5, 9, 0], [1, 4, 7, 0], [1, 3, 5, 0]], [[3, 4, 7, 0], [3, 3, 0, 5], [3, 2, 4, 0]], [[3, 5, 0, 3], [2, 4, 0, 2], [2, 3, 5, 0]], [[4, 4, 0, 8], [3, 4, 0, 7], [2, 4, 0, 3]], [[4, 5, 4, 0], [3, 4, 3, 0], [2, 2, 3, 0]], [[5, 2, 8, 0], [4, 2, 0, 8], [4, 2, 5, 0]], [[4, 4, 0, 7], [4, 3, 0, 4], [4, 3, 2, 0]], [[2, 4, 0, 6], [2, 3, 7, 0], [2, 3, 0, 5]], [[2, 4, 0, 2], [2, 4, 0, 1], [1, 3, 1, 0]], [[5, 4, 0, 2], [4, 3, 3, 0], [4, 2, 1, 0]], [[3, 4, 0, 1], [1, 4, 0, 1], [1, 4, 5, 0]], [[4, 3, 7, 0], [4, 2, 4, 0], [4, 1, 1, 0]], [[4, 4, 0, 1], [4, 3, 3, 0], [4, 3, 2, 0]], [[4, 2, 0, 3], [3, 1, 6, 0], [3, 1, 0, 1]], [[3, 3, 0, 7], [2, 3, 0, 6], [1, 3, 0, 6]], [[2, 1, 7, 0], [1, 1, 0, 3], [1, 1, 5, 0]], [[3, 2, 0, 7], [3, 2, 0, 6], [1, 2, 4, 0]], [[4, 4, 0, 8], [3, 4, 6, 0], [2, 4, 0, 1]], [[3, 2, 0, 10], [3, 2, 0, 6], [2, 1, 2, 0]], [[5, 4, 9, 0], [5, 2, 6, 0], [5, 1, 0, 4]], [[3, 2, 0, 4], [3, 1, 0, 2], [2, 1, 3, 0]], [[1, 4, 8, 0], [1, 4, 7, 0], [1, 4, 6, 0]], [[4, 3, 7, 0], [3, 1, 0, 6], [3, 1, 5, 0]], [[5, 3, 0, 8], [5, 2, 4, 0], [5, 2, 0, 7]], [[1, 5, 2, 0], [1, 5, 1, 0], [1, 5, 0, 7]], [[5, 5, 0, 10], [3, 4, 0, 7], [3, 3, 0, 3]], [[3, 1, 7, 0], [2, 1, 0, 7], [2, 1, 0, 5]], [[2, 4, 0, 3], [2, 3, 0, 3], [2, 1, 0, 1]], [[1, 5, 7, 0], [1, 4, 5, 0], [1, 3, 0, 2]], [[2, 4, 0, 3], [2, 3, 7, 0], [2, 2, 0, 2]], [[4, 5, 9, 0], [3, 4, 7, 0], [1, 3, 3, 0]], [[2, 3, 3, 0], [2, 3, 2, 0], [2, 3, 1, 0]], [[4, 4, 7, 0], [4, 2, 7, 0], [2, 2, 7, 0]], [[3, 4, 9, 0], [3, 3, 0, 3], [3, 1, 0, 3]], [[3, 3, 0, 10], [3, 2, 4, 0], [3, 2, 2, 0]], [[4, 1, 3, 0], [3, 1, 3, 0], [3, 1, 2, 0]], [[2, 3, 0, 10], [2, 3, 0, 8], [2, 3, 3, 0]], [[2, 2, 0, 6], [2, 2, 0, 5], [1, 2, 0, 4]], [[4, 5, 5, 0], [4, 4, 3, 0], [4, 2, 0, 8]], [[2, 2, 0, 2], [2, 2, 0, 1], [2, 2, 9, 0]], [[2, 3, 0, 3], [1, 3, 6, 0], [1, 1, 5, 0]], [[3, 4, 3, 0], [3, 3, 0, 2], [3, 3, 2, 0]], [[4, 3, 0, 6], [2, 2, 0, 5], [2, 1, 0, 5]], [[1, 4, 7, 0], [1, 3, 5, 0], [1, 2, 0, 1]], [[3, 4, 0, 9], [1, 2, 0, 7], [1, 1, 0, 4]], [[2, 5, 0, 4], [1, 3, 4, 0], [1, 3, 0, 3]], [[4, 3, 5, 0], [4, 3, 0, 3], [3, 2, 2, 0]], [[5, 4, 3, 0], [5, 2, 2, 0], [5, 2, 1, 0]], [[3, 3, 7, 0], [2, 2, 0, 2], [2, 2, 3, 0]], [[3, 5, 5, 0], [3, 5, 4, 0], [3, 5, 3, 0]], [[2, 3, 4, 0], [2, 3, 3, 0], [2, 1, 2, 0]], [[2, 3, 0, 10], [2, 3, 0, 9], [2, 2, 1, 0]], [[3, 5, 8, 0], [3, 2, 0, 2], [3, 2, 0, 1]], [[3, 3, 10, 0], [3, 3, 9, 0], [2, 2, 0, 4]], [[5, 2, 7, 0], [4, 2, 4, 0], [4, 2, 0, 9]], [[4, 4, 1, 0], [4, 3, 0, 5], [4, 3, 0, 4]], [[5, 3, 0, 4], [3, 3, 3, 0], [2, 1, 2, 0]], [[4, 5, 0, 9], [4, 5, 3, 0], [3, 5, 0, 3]], [[4, 2, 0, 10], [3, 2, 4, 0], [2, 1, 2, 0]], [[3, 2, 4, 0], [3, 2, 2, 0], [3, 2, 1, 0]], [[5, 5, 0, 2], [4, 2, 0, 1], [3, 1, 0, 1]], [[3, 2, 6, 0], [3, 1, 5, 0], [2, 1, 5, 0]], [[4, 4, 0, 1], [3, 3, 3, 0], [1, 3, 3, 0]], [[3, 4, 6, 0], [3, 2, 4, 0], [2, 1, 0, 1]], [[1, 3, 10, 0], [1, 3, 0, 6], [1, 3, 0, 4]], [[1, 5, 10, 0], [1, 4, 9, 0], [1, 4, 8, 0]], [[2, 5, 9, 0], [1, 4, 0, 3], [1, 4, 3, 0]], [[5, 1, 10, 0], [5, 1, 0, 7], [5, 1, 1, 0]], [[3, 3, 0, 10], [3, 3, 5, 0], [3, 2, 0, 5]], [[2, 4, 0, 10], [1, 3, 5, 0], [1, 2, 0, 9]], [[2, 2, 10, 0], [2, 2, 0, 5], [2, 2, 0, 3]], [[3, 3, 0, 3], [3, 3, 11, 0], [3, 3, 10, 0]], [[1, 4, 0, 8], [1, 3, 4, 0], [1, 3, 2, 0]], [[4, 4, 0, 4], [4, 2, 0, 4], [4, 2, 7, 0]], [[1, 3, 0, 7], [1, 3, 7, 0], [1, 3, 4, 0]], [[2, 1, 0, 7], [1, 1, 0, 5], [1, 1, 0, 3]], [[5, 4, 0, 8], [3, 4, 3, 0], [3, 4, 2, 0]], [[4, 3, 0, 3], [2, 3, 0, 3], [2, 3, 4, 0]], [[5, 5, 2, 0], [3, 4, 2, 0], [2, 4, 0, 8]], [[4, 5, 6, 0], [4, 3, 5, 0], [4, 2, 3, 0]], [[1, 3, 10, 0], [1, 2, 0, 6], [1, 1, 0, 3]], [[3, 4, 6, 0], [1, 2, 4, 0], [1, 2, 0, 2]], [[0, 0, 0, 0]]]
